Minimize
  2 x(1) + 2 x(2) + 100 x(3) + 4 x(4) + 8 x(5) + 8 x(6) + [ - 2 x(1) ^ 2
   - 2 x(2) ^ 2 - 50 x(3) ^ 2 - 2 x(4) ^ 2 - 2 x(5) ^ 2 - 2 x(6) ^ 2 ] / 2 
Subject To
 con1: x(3) + x(4) >= 2
 con2: x(3) + x(4) <= 6
 con3: - x(3) + x(4) <= 2
 con4: x(3) - 3 x(4) <= 2
 QCP_row_for_con5: - 6 x(2) + x(6) + [ x(2) ^ 2 ] >= -5
 QCP_row_for_con6: - 6 x(1) + x(5) + [ x(1) ^ 2 ] >= -5
Bounds

 1 <= x(1) <= 5
 1 <= x(2) <= 5

x(3) <= 5
x(4) <= 1

 0 <= x(5) <= 6
 0 <= x(6) <= 10
End
